45	6	100
0	0	0
-20	-6	19
21	23	2
50	-44	12
66	-11	20
40	-68	6
-25	-17	17
17	-23	8
60	-56	14
18	-5	2
54	-44	8
-20	-57	5
43	25	7
25	-36	22
-18	8	14
35	7	17
65	-18	23
5	-56	15
1	-50	21
-25	-60	2
33	-43	24
56	-68	10
44	-12	20
9	-1	6
-30	-29	21
29	22	10
-4	-24	6
-16	-40	13
15	-20	21
-3	-30	24
-28	-64	11
-30	27	16
22	-27	8
67	-65	11
-25	-48	11
-24	8	22
65	15	17
-29	-38	22
1	21	17
64	21	8
-22	-62	23
65	-57	5
59	-5	3
2	-42	18
-25	-14	12
